50 8
696 789
171 175
643 352
479 358
216 588
294 207
226 625
510 424
889 583
313 824
818 319
340 119
738 356
328 325
45 587
544 250
272 196
789 393
416 235
325 753
580 735
204 796
709 524
443 703
291 179
682 921
690 464
317 829
541 437
879 572
477 410
272 295
60 575
570 146
383 82
838 353
26 191
720 370
842 205
503 549
768 268
369 848
446 687
730 173
333 163
213 771
354 835
157 641
139 194
359 70
